4 
5  20 40 56 
6  11 26 41 56 
7  11 26 41 56 
8  11 26 41 56 
9  11 24 39 54 
10  09 24 39 54 
11  09 24 39 54 
12  09 24 39 54 
13  09 25 40 55 
14  10 26 40 55 
15  10 23 38 53 
16  08 23 38 53 
17  08 23 38 53 
18  08 23 40 55 
19  10 24 39 54 
20  09 
21 
